32	4
15	17	16	17
0	0	0	0	0	2	2	31
5	13	0	0	17	1	3
5	0	17	0	17	1	4
9	11	0	12	0	2	5	30
8	0	11	16	0	1	6
10	13	5	0	0	2	7	29
9	0	13	16	0	1	8
8	0	0	16	3	1	9
1	15	0	0	17	1	10
8	12	17	0	0	2	11	28
1	8	0	0	11	1	12
4	0	0	13	14	1	13
3	0	13	8	0	2	14	27
3	15	0	0	11	1	15
3	10	6	0	0	2	16	26
8	0	7	16	0	1	17
1	15	0	0	17	1	18
7	0	0	1	4	1	19
9	9	17	0	0	1	20
10	0	17	16	0	1	21
5	0	8	2	0	1	22
10	1	0	0	11	1	23
6	4	0	7	0	1	24
10	0	0	8	12	1	25
9	11	0	0	3	1	32
9	0	14	0	11	1	32
5	0	4	0	14	1	32
1	0	14	9	0	1	32
8	6	0	0	17	1	32
5	0	16	16	0	1	32
5	15	0	12	0	1	32
0	0	0	0	0	0
